4
32
78
40	32
1	3	21	4	11	4	5	4	
2	3	7	7	31	3	19	3	
3	4	10	5	32	4	11	4	24	2	
4	2	5	10	25	3	
5	3	16	7	10	5	12	3	
6	1	7	7	
7	1	15	7	
8	4	5	14	4	12	21	3	18	2	
9	4	4	8	8	7	6	7	10	3	
10	4	5	8	7	6	4	5	11	4	
11	4	7	11	5	10	28	3	19	2	
12	3	6	12	4	4	21	3	
13	4	13	8	13	7	7	7	9	2	
14	1	18	3	
15	2	9	6	5	2	
16	1	10	5	
17	1	31	3	
18	3	14	7	27	3	19	2	
19	1	5	7	
20	2	5	10	12	7	
21	1	5	4	
22	4	6	12	6	7	6	5	17	3	
23	1	8	10	
24	2	26	3	16	3	
25	2	4	8	14	3	
26	3	4	9	11	3	5	3	
27	2	13	3	22	2	
28	2	14	7	9	6	
29	4	4	14	8	13	8	13	5	6	
30	2	13	6	7	5	
31	1	18	3	
32	3	10	5	7	5	16	2	
